
--- Job models_of_discrete_location.gms Start 12/22/21 16:06:04 37.1.0 r07954d5 WEX-WEI x86 64bit/MS Windows
--- Applying:
    C:\GAMS\37\gmsprmNT.txt
--- GAMS Parameters defined
    Input "C:\Users\semih\Desktop\GAMS CALISMA\ILKLER\4_Burak\Benim_cozumlerim\models_of_discrete_location.gms"
    PageSize 0
    ScrDir "C:\Users\semih\Desktop\GAMS CALISMA\ILKLER\4_Burak\Benim_cozumlerim\225a\"
    SysDir C:\GAMS\37\
    LogOption 3
    ErrMsg 1
    ErrorLog 99
    IDE 1
    LstTitleLeftAligned 1
Licensee: GAMS Community License for Mehmet Semih BabacanG210511|0002AO-GEN
          Yildiz Technical University                                CL1316
          C:\Users\semih\Documents\GAMS\gamslice.txt
          Mehmet Semih Babacan, l6918040@std.yildiz.edu.tr                 
          Community license for demonstration and instructional purposes only
Processor information: 1 socket(s), 4 core(s), and 8 thread(s) available
GAMS 37.1.0   Copyright (C) 1987-2021 GAMS Development. All rights reserved
--- Starting compilation
--- models_of_discrete_location.gms(65) 3 Mb
--- Starting execution: elapsed 0:00:00.000
--- Generating MIP model my_model
--- models_of_discrete_location.gms(62) 4 Mb
---   14 rows  49 columns  137 non-zeroes
---   6 discrete-columns
--- Executing CPLEX (Solvelink=2): elapsed 0:00:00.013

IBM ILOG CPLEX   37.1.0 r07954d5 Released Nov 11, 2021 WEI x86 64bit/MS Window

--- *** This solver runs with a community license. No commercial use.
--- GMO setup time: 0.00s
--- GMO memory 0.50 Mb (peak 0.50 Mb)
--- Dictionary memory 0.00 Mb
--- Cplex 20.1.0.1 link memory 0.00 Mb (peak 0.00 Mb)
--- Starting Cplex

Version identifier: 20.1.0.1 | 2021-04-07 | 3a818710c
CPXPARAM_Advance                                 0
CPXPARAM_Simplex_Display                         2
CPXPARAM_Threads                                 1
CPXPARAM_MIP_Display                             4
CPXPARAM_MIP_Pool_Capacity                       0
CPXPARAM_MIP_Tolerances_AbsMIPGap                0
Generic callback                                 0x50
Tried aggregator 1 time.
MIP Presolve eliminated 0 rows and 1 columns.
Reduced MIP has 13 rows, 48 columns, and 90 nonzeros.
Reduced MIP has 6 binaries, 0 generals, 0 SOSs, and 0 indicators.
Presolve time = 0.00 sec. (0.04 ticks)
Found incumbent of value -21.550000 after 0.00 sec. (0.12 ticks)
Probing time = 0.00 sec. (0.00 ticks)
Tried aggregator 1 time.
Detecting symmetries...
Reduced MIP has 13 rows, 48 columns, and 90 nonzeros.
Reduced MIP has 6 binaries, 0 generals, 0 SOSs, and 0 indicators.
Presolve time = 0.00 sec. (0.05 ticks)
Probing time = 0.00 sec. (0.00 ticks)
MIP emphasis: balance optimality and feasibility.
MIP search method: dynamic search.
Parallel mode: none, using 1 thread.
Tried aggregator 1 time.
No LP presolve or aggregator reductions.
Presolve time = 0.00 sec. (0.01 ticks)
Initializing dual steep norms . . .

Iteration      Dual Objective            In Variable           Out Variable
     1              70.050000                 x(6,6)falicility_openin slack
     2              69.250000                 x(4,2)falicility_openin slack
     3              63.750000                 x(5,3)falicility_openin slack
     4              59.500000                   y(4)falicility_openin slack
     5              53.916667                 x(4,3)falicility_openin slack
     6              51.833333                 x(1,3)falicility_openin slack
     7              50.483333                   y(2)                 x(5,3)
     8              50.483333                 x(7,6)                 x(6,6)
     9              49.783333                   y(1)                 x(4,3)
    10              48.783333                   y(3)                 x(1,3)
Root relaxation solution time = 0.00 sec. (0.04 ticks)

        Nodes                                         Cuts/
   Node  Left     Objective  IInf  Best Integer    Best Bound    ItCnt     Gap

*     0+    0                          -21.5500      270.3000              --- 
Found incumbent of value -21.550000 after 0.00 sec. (0.23 ticks)
      0     0       48.7833     4      -21.5500       48.7833       10  326.37%
*     0+    0                           25.4500       48.7833            91.68%
Found incumbent of value 25.450000 after 0.00 sec. (0.25 ticks)
      0     0       44.7500     3       25.4500      Cuts: 12       21   75.83%
*     0+    0                           44.4500       44.7500             0.67%
Found incumbent of value 44.450000 after 0.00 sec. (0.40 ticks)
      0     0        cutoff             44.4500                     21     --- 
Elapsed time = 0.00 sec. (0.45 ticks, tree = 0.01 MB)

Cover cuts applied:  1
Implied bound cuts applied:  4
Flow cuts applied:  1

Root node processing (before b&c):
  Real time             =    0.00 sec. (0.46 ticks)
Sequential b&c:
  Real time             =    0.00 sec. (0.00 ticks)
                          ------------
Total (root+branch&cut) =    0.00 sec. (0.46 ticks)

--- MIP status (101): integer optimal solution.
--- Cplex Time: 0.00sec (det. 0.46 ticks)

--- Fixing integer variables and solving final LP...

Version identifier: 20.1.0.1 | 2021-04-07 | 3a818710c
CPXPARAM_Advance                                 2
CPXPARAM_Simplex_Display                         2
CPXPARAM_Threads                                 1
CPXPARAM_MIP_Display                             4
CPXPARAM_MIP_Pool_Capacity                       0
CPXPARAM_MIP_Tolerances_AbsMIPGap                0
Tried aggregator 1 time.
LP Presolve eliminated 3 rows and 28 columns.
Reduced LP has 10 rows, 21 columns, and 42 nonzeros.
Presolve time = 0.00 sec. (0.02 ticks)
Initializing dual steep norms . . .

Iteration      Dual Objective            In Variable           Out Variable
     1              44.450000                 x(4,2)falicility_openin slack

--- Fixed MIP status (1): optimal.
--- Cplex Time: 0.00sec (det. 0.03 ticks)


Proven optimal solution
MIP Solution:           44.450000    (21 iterations, 0 nodes)
Final Solve:            44.450000    (1 iterations)

Best possible:          44.450000
Absolute gap:            0.000000
Relative gap:            0.000000

--- Reading solution for model my_model
--- Executing after solve: elapsed 0:00:00.074
--- models_of_discrete_location.gms(65) 4 Mb
*** Status: Normal completion
--- Job models_of_discrete_location.gms Stop 12/22/21 16:06:04 elapsed 0:00:00.080
